x = 25;
y = 17;
c = 73;
n = 53;

p = [13  61  74  50  54  53  70  29  20  42  12  66  20  45  89  92  82  48  34  40  73  19  49  24  94  15  50  90  81  10  36  44  68  19  75  66  69  64  90  54  92  97  85  25  60  95  21  100  66  40  83  16  42];
w = [10  2  8  8  2  8  6  10  10  4  7  6  4  8  3  5  8  1  3  3  1  10  10  5  9  5  3  2  2  2  3  7  7  4  4  9  5  9  9  8  4  10  6  4  9  2  2  5  5  6  10  6  4];
s = [15  12  7  8  3  6  14  3  17  7  16  17  12  11  14  9  17  6  15  10  14  16  3  7  7  5  12  13  17  14  1  6  2  13  9  2  2  9  6  7  13  5  12  9  6  6  16  1  11  12  2  6  4];
